mixintcount/benchmarks/random_v2l/7_7_7943.smt2
(set-logic QF_LIA)
(set-info :ran/ran2.smt2)
(set-info :smt-lib-version 2.0)
(declare-fun x1 () Int)
(declare-fun x2 () Int)
(declare-fun x3 () Int)
(declare-fun x4 () Int)
(declare-fun x5 () Int)
(declare-fun x6 () Int)
(declare-fun x7 () Int)
(assert (<= (+ (* (- 4) x1) (* 0 x2) (* 5 x3) (* (- 4) x4) (* (- 6) x5) (* 5 x6) (* (- 4) x7) ) (- 374)))
(assert (<= (+ (* 9 x1) (* (- 6) x2) (* 8 x3) (* (- 4) x4) (* 8 x5) (* 1 x6) (* (- 5) x7) ) 7546))
(assert (<= (+ (* 4 x1) (* 2 x2) (* (- 4) x3) (* 8 x4) (* (- 10) x5) (* 4 x6) (* 9 x7) ) 3450))
(assert (<= (+ (* 5 x1) (* 6 x2) (* (- 9) x3) (* 3 x4) (* 9 x5) (* (- 4) x6) (* (- 4) x7) ) (- 6740)))
(assert (<= (+ (* 4 x1) (* (- 10) x2) (* 1 x3) (* 9 x4) (* 4 x5) (* 5 x6) (* (- 2) x7) ) 6623))
(assert (<= (+ (* 7 x1) (* (- 6) x2) (* 6 x3) (* 4 x4) (* 5 x5) (* 9 x6) (* (- 4) x7) ) 924))
(assert (<= (+ (* (- 2) x1) (* 3 x2) (* (- 6) x3) (* (- 1) x4) (* (- 4) x5) (* (- 10) x6) (* 5 x7) ) 6430))
(assert (<= (+ (* 6 x1) (* 6 x2) (* 1 x3) (* 5 x4) (* 10 x5) (* 7 x6) (* 8 x7) ) (- 1345)))
(assert (<= (+ (* 6 x1) (* (- 2) x2) (* (- 2) x3) (* (- 1) x4) (* (- 9) x5) (* 4 x6) (* 9 x7) ) 4964))
(assert (<= (+ (* 8 x1) (* 2 x2) (* 2 x3) (* 1 x4) (* 0 x5) (* 6 x6) (* 8 x7) ) 4459))
(assert (<= (+ (* (- 2) x1) (* (- 9) x2) (* (- 6) x3) (* 3 x4) (* (- 9) x5) (* 9 x6) (* 1 x7) ) 2551))
(assert (<= (+ (* 3 x1) (* (- 10) x2) (* (- 3) x3) (* 0 x4) (* 5 x5) (* (- 6) x6) (* 10 x7) ) 3226))
(assert (<= (+ (* 3 x1) (* (- 3) x2) (* 7 x3) (* 4 x4) (* (- 9) x5) (* 5 x6) (* (- 1) x7) ) (- 1776)))
(assert (<= (+ (* (- 4) x1) (* (- 10) x2) (* (- 3) x3) (* 4 x4) (* 5 x5) (* (- 6) x6) (* 0 x7) ) 7126))
(assert (<= (+ (* 1 x1) (* 0 x2) (* 0 x3) (* 0 x4) (* 0 x5) (* 0 x6) (* 0 x7) ) 7943))
(assert (<= (+ (* (- 1) x1) (* 0 x2) (* 0 x3) (* 0 x4) (* 0 x5) (* 0 x6) (* 0 x7) ) 7943))
(assert (<= (+ (* 0 x1) (* 1 x2) (* 0 x3) (* 0 x4) (* 0 x5) (* 0 x6) (* 0 x7) ) 7943))
(assert (<= (+ (* 0 x1) (* (- 1) x2) (* 0 x3) (* 0 x4) (* 0 x5) (* 0 x6) (* 0 x7) ) 7943))
(assert (<= (+ (* 0 x1) (* 0 x2) (* 1 x3) (* 0 x4) (* 0 x5) (* 0 x6) (* 0 x7) ) 7943))
(assert (<= (+ (* 0 x1) (* 0 x2) (* (- 1) x3) (* 0 x4) (* 0 x5) (* 0 x6) (* 0 x7) ) 7943))
(assert (<= (+ (* 0 x1) (* 0 x2) (* 0 x3) (* 1 x4) (* 0 x5) (* 0 x6) (* 0 x7) ) 7943))
(assert (<= (+ (* 0 x1) (* 0 x2) (* 0 x3) (* (- 1) x4) (* 0 x5) (* 0 x6) (* 0 x7) ) 7943))
(assert (<= (+ (* 0 x1) (* 0 x2) (* 0 x3) (* 0 x4) (* 1 x5) (* 0 x6) (* 0 x7) ) 7943))
(assert (<= (+ (* 0 x1) (* 0 x2) (* 0 x3) (* 0 x4) (* (- 1) x5) (* 0 x6) (* 0 x7) ) 7943))
(assert (<= (+ (* 0 x1) (* 0 x2) (* 0 x3) (* 0 x4) (* 0 x5) (* 1 x6) (* 0 x7) ) 7943))
(assert (<= (+ (* 0 x1) (* 0 x2) (* 0 x3) (* 0 x4) (* 0 x5) (* (- 1) x6) (* 0 x7) ) 7943))
(assert (<= (+ (* 0 x1) (* 0 x2) (* 0 x3) (* 0 x4) (* 0 x5) (* 0 x6) (* 1 x7) ) 7943))
(assert (<= (+ (* 0 x1) (* 0 x2) (* 0 x3) (* 0 x4) (* 0 x5) (* 0 x6) (* (- 1) x7) ) 7943))
