mixintcount/benchmarks/random_v2l/7_7_7943.in
28 9
#	x1	x2	x3	x4	x5	x6	x7;		0 = Real; 1 = Integer
	1	1	1	1	1	1	1
1	-4	0	5	-4	-6	5	-4	-374
1	9	-6	8	-4	8	1	-5	7546
1	4	2	-4	8	-10	4	9	3450
1	5	6	-9	3	9	-4	-4	-6740
1	4	-10	1	9	4	5	-2	6623
1	7	-6	6	4	5	9	-4	924
1	-2	3	-6	-1	-4	-10	5	6430
1	6	6	1	5	10	7	8	-1345
1	6	-2	-2	-1	-9	4	9	4964
1	8	2	2	1	0	6	8	4459
1	-2	-9	-6	3	-9	9	1	2551
1	3	-10	-3	0	5	-6	10	3226
1	3	-3	7	4	-9	5	-1	-1776
1	-4	-10	-3	4	5	-6	0	7126
1	1	0	0	0	0	0	0	7943
1	-1	0	0	0	0	0	0	7943
1	0	1	0	0	0	0	0	7943
1	0	-1	0	0	0	0	0	7943
1	0	0	1	0	0	0	0	7943
1	0	0	-1	0	0	0	0	7943
1	0	0	0	1	0	0	0	7943
1	0	0	0	-1	0	0	0	7943
1	0	0	0	0	1	0	0	7943
1	0	0	0	0	-1	0	0	7943
1	0	0	0	0	0	1	0	7943
1	0	0	0	0	0	-1	0	7943
1	0	0	0	0	0	0	1	7943
1	0	0	0	0	0	0	-1	7943
